(declare-fun e () String)
(declare-fun g () String)
(declare-fun b () String)
(declare-fun d () String)
(declare-fun f () String)
(declare-fun a () String)
(declare-fun h () String)
(assert (= (str.++ f d g "af") (str.++ b d h "c")))
(assert (= (str.++ "d" h "e" a) (str.++ "b" f)))
(assert (= (str.++ "c" e "h") (str.++ "hbf" b)))

(check-sat)
